c Generated from Nested-Unit Petri Net model NUPN2/2614.nupn
c (C) 2020 Pierre Bouvier and Hubert Garavel at INRIA Grenoble Rhône-Alpes
c Produced by the CONVECS research team (http://convecs.inria.fr)
c Licensed under CC-BY Creative Commons Attribution 4.0 International License
c (license terms available from http://creativecommons.org/licenses/by/4.0)
p cnf 354 3239
c t mc
1 0
7 8 0
13 14 15 0
19 20 21 22 0
25 26 27 28 29 0
31 32 33 34 35 36 0
37 38 39 40 41 42 0
43 44 45 46 47 48 0
49 50 51 52 53 54 0
55 56 57 58 59 60 0
61 62 63 64 65 66 0
67 68 69 70 71 72 0
73 74 75 76 77 78 0
79 80 81 82 83 84 0
85 86 87 88 89 90 0
91 92 93 94 95 96 0
97 98 99 100 101 102 0
103 104 105 106 107 108 0
109 110 111 112 113 114 0
115 116 117 118 119 120 0
121 122 123 124 125 126 0
127 128 129 130 131 132 0
133 134 135 136 137 138 0
139 140 141 142 143 144 0
145 146 147 148 149 150 0
151 152 153 154 155 156 0
157 158 159 160 161 162 0
163 164 165 166 167 168 0
169 170 171 172 173 174 0
175 176 177 178 179 180 0
181 182 183 184 185 186 0
187 188 189 190 191 192 0
193 194 195 196 197 198 0
199 200 201 202 203 204 0
205 206 207 208 209 210 0
211 212 213 214 215 216 0
217 218 219 220 221 222 0
223 224 225 226 227 228 0
229 230 231 232 233 234 0
235 236 237 238 239 240 0
241 242 243 244 245 246 0
247 248 249 250 251 252 0
253 254 255 256 257 258 0
259 260 261 262 263 264 0
265 266 267 268 269 270 0
271 272 273 274 275 276 0
277 278 279 280 281 282 0
283 284 285 286 287 288 0
289 290 291 292 293 294 0
295 296 297 298 299 300 0
301 302 303 304 305 306 0
307 308 309 310 311 312 0
313 314 315 316 317 318 0
319 320 321 322 323 324 0
325 326 327 328 329 330 0
331 332 333 334 335 336 0
337 338 339 340 341 342 0
343 344 345 346 347 348 0
349 350 351 352 353 354 0
-127 -337 0
-128 -338 0
-129 -339 0
-130 -340 0
-131 -341 0
-132 -342 0
-115 -145 0
-116 -146 0
-117 -147 0
-118 -148 0
-119 -149 0
-120 -150 0
-19 -211 0
-20 -212 0
-21 -213 0
-22 -214 0
-23 -215 0
-24 -216 0
-319 -343 0
-320 -344 0
-321 -345 0
-322 -346 0
-323 -347 0
-324 -348 0
-37 -145 0
-38 -146 0
-39 -147 0
-40 -148 0
-41 -149 0
-42 -150 0
-25 -337 0
-26 -338 0
-27 -339 0
-28 -340 0
-29 -341 0
-30 -342 0
-175 -301 0
-176 -302 0
-177 -303 0
-178 -304 0
-179 -305 0
-180 -306 0
-79 -181 0
-80 -182 0
-81 -183 0
-82 -184 0
-83 -185 0
-84 -186 0
-67 -349 0
-68 -350 0
-69 -351 0
-70 -352 0
-71 -353 0
-72 -354 0
-61 -127 0
-62 -128 0
-63 -129 0
-64 -130 0
-65 -131 0
-66 -132 0
-259 -331 0
-260 -332 0
-261 -333 0
-262 -334 0
-263 -335 0
-264 -336 0
-67 -97 0
-68 -98 0
-69 -99 0
-70 -100 0
-71 -101 0
-72 -102 0
-289 -343 0
-290 -344 0
-291 -345 0
-292 -346 0
-293 -347 0
-294 -348 0
-139 -307 0
-140 -308 0
-141 -309 0
-142 -310 0
-143 -311 0
-144 -312 0
-79 -253 0
-80 -254 0
-81 -255 0
-82 -256 0
-83 -257 0
-84 -258 0
-121 -349 0
-122 -350 0
-123 -351 0
-124 -352 0
-125 -353 0
-126 -354 0
-151 -319 0
-152 -320 0
-153 -321 0
-154 -322 0
-155 -323 0
-156 -324 0
-127 -283 0
-128 -284 0
-129 -285 0
-130 -286 0
-131 -287 0
-132 -288 0
-25 -139 0
-26 -140 0
-27 -141 0
-28 -142 0
-29 -143 0
-30 -144 0
-31 -133 0
-32 -134 0
-33 -135 0
-34 -136 0
-35 -137 0
-36 -138 0
-121 -217 0
-122 -218 0
-123 -219 0
-124 -220 0
-125 -221 0
-126 -222 0
-37 -127 0
-38 -128 0
-39 -129 0
-40 -130 0
-41 -131 0
-42 -132 0
-127 -247 0
-128 -248 0
-129 -249 0
-130 -250 0
-131 -251 0
-132 -252 0
-325 -331 0
-326 -332 0
-327 -333 0
-328 -334 0
-329 -335 0
-330 -336 0
-31 -241 0
-32 -242 0
-33 -243 0
-34 -244 0
-35 -245 0
-36 -246 0
-181 -301 0
-182 -302 0
-183 -303 0
-184 -304 0
-185 -305 0
-186 -306 0
-67 -295 0
-68 -296 0
-69 -297 0
-70 -298 0
-71 -299 0
-72 -300 0
-55 -79 0
-56 -80 0
-57 -81 0
-58 -82 0
-59 -83 0
-60 -84 0
-97 -337 0
-98 -338 0
-99 -339 0
-100 -340 0
-101 -341 0
-102 -342 0
-73 -301 0
-74 -302 0
-75 -303 0
-76 -304 0
-77 -305 0
-78 -306 0
-217 -319 0
-218 -320 0
-219 -321 0
-220 -322 0
-221 -323 0
-222 -324 0
-265 -319 0
-266 -320 0
-267 -321 0
-268 -322 0
-269 -323 0
-270 -324 0
-289 -301 0
-290 -302 0
-291 -303 0
-292 -304 0
-293 -305 0
-294 -306 0
-139 -349 0
-140 -350 0
-141 -351 0
-142 -352 0
-143 -353 0
-144 -354 0
-79 -295 0
-80 -296 0
-81 -297 0
-82 -298 0
-83 -299 0
-84 -300 0
-145 -343 0
-146 -344 0
-147 -345 0
-148 -346 0
-149 -347 0
-150 -348 0
-109 -259 0
-110 -260 0
-111 -261 0
-112 -262 0
-113 -263 0
-114 -264 0
-139 -193 0
-140 -194 0
-141 -195 0
-142 -196 0
-143 -197 0
-144 -198 0
-31 -79 0
-32 -80 0
-33 -81 0
-34 -82 0
-35 -83 0
-36 -84 0
-121 -271 0
-122 -272 0
-123 -273 0
-124 -274 0
-125 -275 0
-126 -276 0
-37 -85 0
-38 -86 0
-39 -87 0
-40 -88 0
-41 -89 0
-42 -90 0
-127 -265 0
-128 -266 0
-129 -267 0
-130 -268 0
-131 -269 0
-132 -270 0
-13 -325 0
-14 -326 0
-15 -327 0
-16 -328 0
-17 -329 0
-18 -330 0
-133 -235 0
-134 -236 0
-135 -237 0
-136 -238 0
-137 -239 0
-138 -240 0
-19 -283 0
-20 -284 0
-21 -285 0
-22 -286 0
-23 -287 0
-24 -288 0
-97 -139 0
-98 -140 0
-99 -141 0
-100 -142 0
-101 -143 0
-102 -144 0
-43 -301 0
-44 -302 0
-45 -303 0
-46 -304 0
-47 -305 0
-48 -306 0
-181 -331 0
-182 -332 0
-183 -333 0
-184 -334 0
-185 -335 0
-186 -336 0
-91 -301 0
-92 -302 0
-93 -303 0
-94 -304 0
-95 -305 0
-96 -306 0
-31 -343 0
-32 -344 0
-33 -345 0
-34 -346 0
-35 -347 0
-36 -348 0
-43 -145 0
-44 -146 0
-45 -147 0
-46 -148 0
-47 -149 0
-48 -150 0
-61 -151 0
-62 -152 0
-63 -153 0
-64 -154 0
-65 -155 0
-66 -156 0
-79 -313 0
-80 -314 0
-81 -315 0
-82 -316 0
-83 -317 0
-84 -318 0
-151 -331 0
-152 -332 0
-153 -333 0
-154 -334 0
-155 -335 0
-156 -336 0
-115 -319 0
-116 -320 0
-117 -321 0
-118 -322 0
-119 -323 0
-120 -324 0
-13 -127 0
-14 -128 0
-15 -129 0
-16 -130 0
-17 -131 0
-18 -132 0
-157 -313 0
-158 -314 0
-159 -315 0
-160 -316 0
-161 -317 0
-162 -318 0
-145 -217 0
-146 -218 0
-147 -219 0
-148 -220 0
-149 -221 0
-150 -222 0
-121 -325 0
-122 -326 0
-123 -327 0
-124 -328 0
-125 -329 0
-126 -330 0
-19 -97 0
-20 -98 0
-21 -99 0
-22 -100 0
-23 -101 0
-24 -102 0
-109 -157 0
-110 -158 0
-111 -159 0
-112 -160 0
-113 -161 0
-114 -162 0
-151 -199 0
-152 -200 0
-153 -201 0
-154 -202 0
-155 -203 0
-156 -204 0
-127 -211 0
-128 -212 0
-129 -213 0
-130 -214 0
-131 -215 0
-132 -216 0
-169 -325 0
-170 -326 0
-171 -327 0
-172 -328 0
-173 -329 0
-174 -330 0
-133 -193 0
-134 -194 0
-135 -195 0
-136 -196 0
-137 -197 0
-138 -198 0
-31 -157 0
-32 -158 0
-33 -159 0
-34 -160 0
-35 -161 0
-36 -162 0
-43 -343 0
-44 -344 0
-45 -345 0
-46 -346 0
-47 -347 0
-48 -348 0
-37 -199 0
-38 -200 0
-39 -201 0
-40 -202 0
-41 -203 0
-42 -204 0
-103 -127 0
-104 -128 0
-105 -129 0
-106 -130 0
-107 -131 0
-108 -132 0
-91 -247 0
-92 -248 0
-93 -249 0
-94 -250 0
-95 -251 0
-96 -252 0
-97 -253 0
-98 -254 0
-99 -255 0
-100 -256 0
-101 -257 0
-102 -258 0
-241 -319 0
-242 -320 0
-243 -321 0
-244 -322 0
-245 -323 0
-246 -324 0
-217 -331 0
-218 -332 0
-219 -333 0
-220 -334 0
-221 -335 0
-222 -336 0
-79 -151 0
-80 -152 0
-81 -153 0
-82 -154 0
-83 -155 0
-84 -156 0
-223 -325 0
-224 -326 0
-225 -327 0
-226 -328 0
-227 -329 0
-228 -330 0
-55 -151 0
-56 -152 0
-57 -153 0
-58 -154 0
-59 -155 0
-60 -156 0
-253 -331 0
-254 -332 0
-255 -333 0
-256 -334 0
-257 -335 0
-258 -336 0
-85 -337 0
-86 -338 0
-87 -339 0
-88 -340 0
-89 -341 0
-90 -342 0
-73 -145 0
-74 -146 0
-75 -147 0
-76 -148 0
-77 -149 0
-78 -150 0
-79 -223 0
-80 -224 0
-81 -225 0
-82 -226 0
-83 -227 0
-84 -228 0
-13 -181 0
-14 -182 0
-15 -183 0
-16 -184 0
-17 -185 0
-18 -186 0
-1 -301 0
-2 -302 0
-3 -303 0
-4 -304 0
-5 -305 0
-6 -306 0
-19 -139 0
-20 -140 0
-21 -141 0
-22 -142 0
-23 -143 0
-24 -144 0
-7 -331 0
-8 -332 0
-9 -333 0
-10 -334 0
-11 -335 0
-12 -336 0
-115 -157 0
-116 -158 0
-117 -159 0
-118 -160 0
-119 -161 0
-120 -162 0
-121 -151 0
-122 -152 0
-123 -153 0
-124 -154 0
-125 -155 0
-126 -156 0
-19 -223 0
-20 -224 0
-21 -225 0
-22 -226 0
-23 -227 0
-24 -228 0
-319 -331 0
-320 -332 0
-321 -333 0
-322 -334 0
-323 -335 0
-324 -336 0
-37 -157 0
-38 -158 0
-39 -159 0
-40 -160 0
-41 -161 0
-42 -162 0
-91 -193 0
-92 -194 0
-93 -195 0
-94 -196 0
-95 -197 0
-96 -198 0
-31 -307 0
-32 -308 0
-33 -309 0
-34 -310 0
-35 -311 0
-36 -312 0
-79 -169 0
-80 -170 0
-81 -171 0
-82 -172 0
-83 -173 0
-84 -174 0
-85 -139 0
-86 -140 0
-87 -141 0
-88 -142 0
-89 -143 0
-90 -144 0
-73 -331 0
-74 -332 0
-75 -333 0
-76 -334 0
-77 -335 0
-78 -336 0
-289 -331 0
-290 -332 0
-291 -333 0
-292 -334 0
-293 -335 0
-294 -336 0
-139 -319 0
-140 -320 0
-141 -321 0
-142 -322 0
-143 -323 0
-144 -324 0
-79 -241 0
-80 -242 0
-81 -243 0
-82 -244 0
-83 -245 0
-84 -246 0
-145 -325 0
-146 -326 0
-147 -327 0
-148 -328 0
-149 -329 0
-150 -330 0
-7 -301 0
-8 -302 0
-9 -303 0
-10 -304 0
-11 -305 0
-12 -306 0
-151 -307 0
-152 -308 0
-153 -309 0
-154 -310 0
-155 -311 0
-156 -312 0
-307 -337 0
-308 -338 0
-309 -339 0
-310 -340 0
-311 -341 0
-312 -342 0
-127 -319 0
-128 -320 0
-129 -321 0
-130 -322 0
-131 -323 0
-132 -324 0
-271 -301 0
-272 -302 0
-273 -303 0
-274 -304 0
-275 -305 0
-276 -306 0
-157 -337 0
-158 -338 0
-159 -339 0
-160 -340 0
-161 -341 0
-162 -342 0
-19 -265 0
-20 -266 0
-21 -267 0
-22 -268 0
-23 -269 0
-24 -270 0
-37 -91 0
-38 -92 0
-39 -93 0
-40 -94 0
-41 -95 0
-42 -96 0
-127 -235 0
-128 -236 0
-129 -237 0
-130 -238 0
-131 -239 0
-132 -240 0
-91 -139 0
-92 -140 0
-93 -141 0
-94 -142 0
-95 -143 0
-96 -144 0
-31 -277 0
-32 -278 0
-33 -279 0
-34 -280 0
-35 -281 0
-36 -282 0
-175 -331 0
-176 -332 0
-177 -333 0
-178 -334 0
-179 -335 0
-180 -336 0
-43 -79 0
-44 -80 0
-45 -81 0
-46 -82 0
-47 -83 0
-48 -84 0
-205 -319 0
-206 -320 0
-207 -321 0
-208 -322 0
-209 -323 0
-210 -324 0
-253 -319 0
-254 -320 0
-255 -321 0
-256 -322 0
-257 -323 0
-258 -324 0
-73 -289 0
-74 -290 0
-75 -291 0
-76 -292 0
-77 -293 0
-78 -294 0
-49 -97 0
-50 -98 0
-51 -99 0
-52 -100 0
-53 -101 0
-54 -102 0
-223 -349 0
-224 -350 0
-225 -351 0
-226 -352 0
-227 -353 0
-228 -354 0
-55 -127 0
-56 -128 0
-57 -129 0
-58 -130 0
-59 -131 0
-60 -132 0
-79 -283 0
-80 -284 0
-81 -285 0
-82 -286 0
-83 -287 0
-84 -288 0
-145 -331 0
-146 -332 0
-147 -333 0
-148 -334 0
-149 -335 0
-150 -336 0
-19 -79 0
-20 -80 0
-21 -81 0
-22 -82 0
-23 -83 0
-24 -84 0
-109 -271 0
-110 -272 0
-111 -273 0
-112 -274 0
-113 -275 0
-114 -276 0
-139 -205 0
-140 -206 0
-141 -207 0
-142 -208 0
-143 -209 0
-144 -210 0
-145 -199 0
-146 -200 0
-147 -201 0
-148 -202 0
-149 -203 0
-150 -204 0
-121 -259 0
-122 -260 0
-123 -261 0
-124 -262 0
-125 -263 0
-126 -264 0
-19 -115 0
-20 -116 0
-21 -117 0
-22 -118 0
-23 -119 0
-24 -120 0
-127 -205 0
-128 -206 0
-129 -207 0
-130 -208 0
-131 -209 0
-132 -210 0
-193 -337 0
-194 -338 0
-195 -339 0
-196 -340 0
-197 -341 0
-198 -342 0
-121 -127 0
-122 -128 0
-123 -129 0
-124 -130 0
-125 -131 0
-126 -132 0
-19 -295 0
-20 -296 0
-21 -297 0
-22 -298 0
-23 -299 0
-24 -300 0
-49 -283 0
-50 -284 0
-51 -285 0
-52 -286 0
-53 -287 0
-54 -288 0
-91 -313 0
-92 -314 0
-93 -315 0
-94 -316 0
-95 -317 0
-96 -318 0
-211 -331 0
-212 -332 0
-213 -333 0
-214 -334 0
-215 -335 0
-216 -336 0
-43 -157 0
-44 -158 0
-45 -159 0
-46 -160 0
-47 -161 0
-48 -162 0
-241 -301 0
-242 -302 0
-243 -303 0
-244 -304 0
-245 -305 0
-246 -306 0
-73 -247 0
-74 -248 0
-75 -249 0
-76 -250 0
-77 -251 0
-78 -252 0
-49 -151 0
-50 -152 0
-51 -153 0
-52 -154 0
-53 -155 0
-54 -156 0
-55 -97 0
-56 -98 0
-57 -99 0
-58 -100 0
-59 -101 0
-60 -102 0
-79 -349 0
-80 -350 0
-81 -351 0
-82 -352 0
-83 -353 0
-84 -354 0
-13 -139 0
-14 -140 0
-15 -141 0
-16 -142 0
-17 -143 0
-18 -144 0
-157 -325 0
-158 -326 0
-159 -327 0
-160 -328 0
-161 -329 0
-162 -330 0
-1 -331 0
-2 -332 0
-3 -333 0
-4 -334 0
-5 -335 0
-6 -336 0
-19 -109 0
-20 -110 0
-21 -111 0
-22 -112 0
-23 -113 0
-24 -114 0
-187 -301 0
-188 -302 0
-189 -303 0
-190 -304 0
-191 -305 0
-192 -306 0
-127 -343 0
-128 -344 0
-129 -345 0
-130 -346 0
-131 -347 0
-132 -348 0
-91 -127 0
-92 -128 0
-93 -129 0
-94 -130 0
-95 -131 0
-96 -132 0
-31 -145 0
-32 -146 0
-33 -147 0
-34 -148 0
-35 -149 0
-36 -150 0
-19 -337 0
-20 -338 0
-21 -339 0
-22 -340 0
-23 -341 0
-24 -342 0
-97 -133 0
-98 -134 0
-99 -135 0
-100 -136 0
-101 -137 0
-102 -138 0
-235 -337 0
-236 -338 0
-237 -339 0
-238 -340 0
-239 -341 0
-240 -342 0
-97 -241 0
-98 -242 0
-99 -243 0
-100 -244 0
-101 -245 0
-102 -246 0
-37 -343 0
-38 -344 0
-39 -345 0
-40 -346 0
-41 -347 0
-42 -348 0
-73 -205 0
-74 -206 0
-75 -207 0
-76 -208 0
-77 -209 0
-78 -210 0
-103 -271 0
-104 -272 0
-105 -273 0
-106 -274 0
-107 -275 0
-108 -276 0
-247 -301 0
-248 -302 0
-249 -303 0
-250 -304 0
-251 -305 0
-252 -306 0
-79 -139 0
-80 -140 0
-81 -141 0
-82 -142 0
-83 -143 0
-84 -144 0
-67 -331 0
-68 -332 0
-69 -333 0
-70 -334 0
-71 -335 0
-72 -336 0
-55 -139 0
-56 -140 0
-57 -141 0
-58 -142 0
-59 -143 0
-60 -144 0
-67 -127 0
-68 -128 0
-69 -129 0
-70 -130 0
-71 -131 0
-72 -132 0
-79 -211 0
-80 -212 0
-81 -213 0
-82 -214 0
-83 -215 0
-84 -216 0
-301 -349 0
-302 -350 0
-303 -351 0
-304 -352 0
-305 -353 0
-306 -354 0
-85 -193 0
-86 -194 0
-87 -195 0
-88 -196 0
-89 -197 0
-90 -198 0
-19 -151 0
-20 -152 0
-21 -153 0
-22 -154 0
-23 -155 0
-24 -156 0
-25 -157 0
-26 -158 0
-27 -159 0
-28 -160 0
-29 -161 0
-30 -162 0
-115 -217 0
-116 -218 0
-117 -219 0
-118 -220 0
-119 -221 0
-120 -222 0
-13 -229 0
-14 -230 0
-15 -231 0
-16 -232 0
-17 -233 0
-18 -234 0
-157 -199 0
-158 -200 0
-159 -201 0
-160 -202 0
-161 -203 0
-162 -204 0
-31 -91 0
-32 -92 0
-33 -93 0
-34 -94 0
-35 -95 0
-36 -96 0
-121 -139 0
-122 -140 0
-123 -141 0
-124 -142 0
-125 -143 0
-126 -144 0
-19 -187 0
-20 -188 0
-21 -189 0
-22 -190 0
-23 -191 0
-24 -192 0
-49 -199 0
-50 -200 0
-51 -201 0
-52 -202 0
-53 -203 0
-54 -204 0
-91 -205 0
-92 -206 0
-93 -207 0
-94 -208 0
-95 -209 0
-96 -210 0
-97 -199 0
-98 -200 0
-99 -201 0
-100 -202 0
-101 -203 0
-102 -204 0
-205 -301 0
-206 -302 0
-207 -303 0
-208 -304 0
-209 -305 0
-210 -306 0
-247 -343 0
-248 -344 0
-249 -345 0
-250 -346 0
-251 -347 0
-252 -348 0
-91 -337 0
-92 -338 0
-93 -339 0
-94 -340 0
-95 -341 0
-96 -342 0
-253 -301 0
-254 -302 0
-255 -303 0
-256 -304 0
-257 -305 0
-258 -306 0
-85 -151 0
-86 -152 0
-87 -153 0
-88 -154 0
-89 -155 0
-90 -156 0
-73 -319 0
-74 -320 0
-75 -321 0
-76 -322 0
-77 -323 0
-78 -324 0
-73 -91 0
-74 -92 0
-75 -93 0
-76 -94 0
-77 -95 0
-78 -96 0
-139 -331 0
-140 -332 0
-141 -333 0
-142 -334 0
-143 -335 0
-144 -336 0
-79 -277 0
-80 -278 0
-81 -279 0
-82 -280 0
-83 -281 0
-84 -282 0
-145 -313 0
-146 -314 0
-147 -315 0
-148 -316 0
-149 -317 0
-150 -318 0
-127 -307 0
-128 -308 0
-129 -309 0
-130 -310 0
-131 -311 0
-132 -312 0
-115 -259 0
-116 -260 0
-117 -261 0
-118 -262 0
-119 -263 0
-120 -264 0
-313 -343 0
-314 -344 0
-315 -345 0
-316 -346 0
-317 -347 0
-318 -348 0
-277 -307 0
-278 -308 0
-279 -309 0
-280 -310 0
-281 -311 0
-282 -312 0
-19 -277 0
-20 -278 0
-21 -279 0
-22 -280 0
-23 -281 0
-24 -282 0
-127 -271 0
-128 -272 0
-129 -273 0
-130 -274 0
-131 -275 0
-132 -276 0
-13 -295 0
-14 -296 0
-15 -297 0
-16 -298 0
-17 -299 0
-18 -300 0
-91 -151 0
-92 -152 0
-93 -153 0
-94 -154 0
-95 -155 0
-96 -156 0
-133 -277 0
-134 -278 0
-135 -279 0
-136 -280 0
-137 -281 0
-138 -282 0
-19 -313 0
-20 -314 0
-21 -315 0
-22 -316 0
-23 -317 0
-24 -318 0
-97 -157 0
-98 -158 0
-99 -159 0
-100 -160 0
-101 -161 0
-102 -162 0
-37 -235 0
-38 -236 0
-39 -237 0
-40 -238 0
-41 -239 0
-42 -240 0
-43 -283 0
-44 -284 0
-45 -285 0
-46 -286 0
-47 -287 0
-48 -288 0
-205 -331 0
-206 -332 0
-207 -333 0
-208 -334 0
-209 -335 0
-210 -336 0
-211 -301 0
-212 -302 0
-213 -303 0
-214 -304 0
-215 -305 0
-216 -306 0
-43 -127 0
-44 -128 0
-45 -129 0
-46 -130 0
-47 -131 0
-48 -132 0
-259 -301 0
-260 -302 0
-261 -303 0
-262 -304 0
-263 -305 0
-264 -306 0
-61 -145 0
-62 -146 0
-63 -147 0
-64 -148 0
-65 -149 0
-66 -150 0
-79 -319 0
-80 -320 0
-81 -321 0
-82 -322 0
-83 -323 0
-84 -324 0
-139 -217 0
-140 -218 0
-141 -219 0
-142 -220 0
-143 -221 0
-144 -222 0
-271 -331 0
-272 -332 0
-273 -333 0
-274 -334 0
-275 -335 0
-276 -336 0
-19 -127 0
-20 -128 0
-21 -129 0
-22 -130 0
-23 -131 0
-24 -132 0
-109 -127 0
-110 -128 0
-111 -129 0
-112 -130 0
-113 -131 0
-114 -132 0
-127 -193 0
-128 -194 0
-129 -195 0
-130 -196 0
-131 -197 0
-132 -198 0
-13 -349 0
-14 -350 0
-15 -351 0
-16 -352 0
-17 -353 0
-18 -354 0
-37 -193 0
-38 -194 0
-39 -195 0
-40 -196 0
-41 -197 0
-42 -198 0
-103 -157 0
-104 -158 0
-105 -159 0
-106 -160 0
-107 -161 0
-108 -162 0
-49 -319 0
-50 -320 0
-51 -321 0
-52 -322 0
-53 -323 0
-54 -324 0
-235 -307 0
-236 -308 0
-237 -309 0
-238 -310 0
-239 -311 0
-240 -312 0
-97 -319 0
-98 -320 0
-99 -321 0
-100 -322 0
-101 -323 0
-102 -324 0
-217 -349 0
-218 -350 0
-219 -351 0
-220 -352 0
-221 -353 0
-222 -354 0
-49 -139 0
-50 -140 0
-51 -141 0
-52 -142 0
-53 -143 0
-54 -144 0
-247 -319 0
-248 -320 0
-249 -321 0
-250 -322 0
-251 -323 0
-252 -324 0
-79 -133 0
-80 -134 0
-81 -135 0
-82 -136 0
-83 -137 0
-84 -138 0
-85 -127 0
-86 -128 0
-87 -129 0
-88 -130 0
-89 -131 0
-90 -132 0
-79 -337 0
-80 -338 0
-81 -339 0
-82 -340 0
-83 -341 0
-84 -342 0
-67 -145 0
-68 -146 0
-69 -147 0
-70 -148 0
-71 -149 0
-72 -150 0
-79 -205 0
-80 -206 0
-81 -207 0
-82 -208 0
-83 -209 0
-84 -210 0
-115 -295 0
-116 -296 0
-117 -297 0
-118 -298 0
-119 -299 0
-120 -300 0
-13 -151 0
-14 -152 0
-15 -153 0
-16 -154 0
-17 -155 0
-18 -156 0
-121 -301 0
-122 -302 0
-123 -303 0
-124 -304 0
-125 -305 0
-126 -306 0
-19 -169 0
-20 -170 0
-21 -171 0
-22 -172 0
-23 -173 0
-24 -174 0
-127 -331 0
-128 -332 0
-129 -333 0
-130 -334 0
-131 -335 0
-132 -336 0
-25 -91 0
-26 -92 0
-27 -93 0
-28 -94 0
-29 -95 0
-30 -96 0
-115 -139 0
-116 -140 0
-117 -141 0
-118 -142 0
-119 -143 0
-120 -144 0
-13 -187 0
-14 -188 0
-15 -189 0
-16 -190 0
-17 -191 0
-18 -192 0
-169 -301 0
-170 -302 0
-171 -303 0
-172 -304 0
-173 -305 0
-174 -306 0
-19 -349 0
-20 -350 0
-21 -351 0
-22 -352 0
-23 -353 0
-24 -354 0
-175 -295 0
-176 -296 0
-177 -297 0
-178 -298 0
-179 -299 0
-180 -300 0
-37 -307 0
-38 -308 0
-39 -309 0
-40 -310 0
-41 -311 0
-42 -312 0
-241 -343 0
-242 -344 0
-243 -345 0
-244 -346 0
-245 -347 0
-246 -348 0
-61 -289 0
-62 -290 0
-63 -291 0
-64 -292 0
-65 -293 0
-66 -294 0
-103 -259 0
-104 -260 0
-105 -261 0
-106 -262 0
-107 -263 0
-108 -264 0
-79 -175 0
-80 -176 0
-81 -177 0
-82 -178 0
-83 -179 0
-84 -180 0
-229 -295 0
-230 -296 0
-231 -297 0
-232 -298 0
-233 -299 0
-234 -300 0
-73 -349 0
-74 -350 0
-75 -351 0
-76 -352 0
-77 -353 0
-78 -354 0
-283 -343 0
-284 -344 0
-285 -345 0
-286 -346 0
-287 -347 0
-288 -348 0
-67 -91 0
-68 -92 0
-69 -93 0
-70 -94 0
-71 -95 0
-72 -96 0
-139 -301 0
-140 -302 0
-141 -303 0
-142 -304 0
-143 -305 0
-144 -306 0
-79 -247 0
-80 -248 0
-81 -249 0
-82 -250 0
-83 -251 0
-84 -252 0
-127 -301 0
-128 -302 0
-129 -303 0
-130 -304 0
-131 -305 0
-132 -306 0
-25 -145 0
-26 -146 0
-27 -147 0
-28 -148 0
-29 -149 0
-30 -150 0
-157 -211 0
-158 -212 0
-159 -213 0
-160 -214 0
-161 -215 0
-162 -216 0
-31 -127 0
-32 -128 0
-33 -129 0
-34 -130 0
-35 -131 0
-36 -132 0
-19 -199 0
-20 -200 0
-21 -201 0
-22 -202 0
-23 -203 0
-24 -204 0
-163 -229 0
-164 -230 0
-165 -231 0
-166 -232 0
-167 -233 0
-168 -234 0
-37 -133 0
-38 -134 0
-39 -135 0
-40 -136 0
-41 -137 0
-42 -138 0
-31 -235 0
-32 -236 0
-33 -237 0
-34 -238 0
-35 -239 0
-36 -240 0
-61 -319 0
-62 -320 0
-63 -321 0
-64 -322 0
-65 -323 0
-66 -324 0
-247 -331 0
-248 -332 0
-249 -333 0
-250 -334 0
-251 -335 0
-252 -336 0
-91 -349 0
-92 -350 0
-93 -351 0
-94 -352 0
-95 -353 0
-96 -354 0
-67 -289 0
-68 -290 0
-69 -291 0
-70 -292 0
-71 -293 0
-72 -294 0
-211 -319 0
-212 -320 0
-213 -321 0
-214 -322 0
-215 -323 0
-216 -324 0
-43 -97 0
-44 -98 0
-45 -99 0
-46 -100 0
-47 -101 0
-48 -102 0
-97 -343 0
-98 -344 0
-99 -345 0
-100 -346 0
-101 -347 0
-102 -348 0
-217 -325 0
-218 -326 0
-219 -327 0
-220 -328 0
-221 -329 0
-222 -330 0
-259 -319 0
-260 -320 0
-261 -321 0
-262 -322 0
-263 -323 0
-264 -324 0
-73 -79 0
-74 -80 0
-75 -81 0
-76 -82 0
-77 -83 0
-78 -84 0
-139 -343 0
-140 -344 0
-141 -345 0
-142 -346 0
-143 -347 0
-144 -348 0
-79 -265 0
-80 -266 0
-81 -267 0
-82 -268 0
-83 -269 0
-84 -270 0
-145 -349 0
-146 -350 0
-147 -351 0
-148 -352 0
-149 -353 0
-150 -354 0
-85 -235 0
-86 -236 0
-87 -237 0
-88 -238 0
-89 -239 0
-90 -240 0
-115 -271 0
-116 -272 0
-117 -273 0
-118 -274 0
-119 -275 0
-120 -276 0
-19 -241 0
-20 -242 0
-21 -243 0
-22 -244 0
-23 -245 0
-24 -246 0
-127 -259 0
-128 -260 0
-129 -261 0
-130 -262 0
-131 -263 0
-132 -264 0
-49 -241 0
-50 -242 0
-51 -243 0
-52 -244 0
-53 -245 0
-54 -246 0
-19 -325 0
-20 -326 0
-21 -327 0
-22 -328 0
-23 -329 0
-24 -330 0
-97 -145 0
-98 -146 0
-99 -147 0
-100 -148 0
-101 -149 0
-102 -150 0
-205 -343 0
-206 -344 0
-207 -345 0
-208 -346 0
-209 -347 0
-210 -348 0
-49 -301 0
-50 -302 0
-51 -303 0
-52 -304 0
-53 -305 0
-54 -306 0
-43 -139 0
-44 -140 0
-45 -141 0
-46 -142 0
-47 -143 0
-48 -144 0
-97 -301 0
-98 -302 0
-99 -303 0
-100 -304 0
-101 -305 0
-102 -306 0
-103 -331 0
-104 -332 0
-105 -333 0
-106 -334 0
-107 -335 0
-108 -336 0
-61 -157 0
-62 -158 0
-63 -159 0
-64 -160 0
-65 -161 0
-66 -162 0
-79 -307 0
-80 -308 0
-81 -309 0
-82 -310 0
-83 -311 0
-84 -312 0
-145 -223 0
-146 -224 0
-147 -225 0
-148 -226 0
-149 -227 0
-150 -228 0
-19 -91 0
-20 -92 0
-21 -93 0
-22 -94 0
-23 -95 0
-24 -96 0
-109 -139 0
-110 -140 0
-111 -141 0
-112 -142 0
-113 -143 0
-114 -144 0
-7 -187 0
-8 -188 0
-9 -189 0
-10 -190 0
-11 -191 0
-12 -192 0
-151 -217 0
-152 -218 0
-153 -219 0
-154 -220 0
-155 -221 0
-156 -222 0
-169 -331 0
-170 -332 0
-171 -333 0
-172 -334 0
-173 -335 0
-174 -336 0
-31 -151 0
-32 -152 0
-33 -153 0
-34 -154 0
-35 -155 0
-36 -156 0
-175 -229 0
-176 -230 0
-177 -231 0
-178 -232 0
-179 -233 0
-180 -234 0
-199 -343 0
-200 -344 0
-201 -345 0
-202 -346 0
-203 -347 0
-204 -348 0
-103 -145 0
-104 -146 0
-105 -147 0
-106 -148 0
-107 -149 0
-108 -150 0
-91 -241 0
-92 -242 0
-93 -243 0
-94 -244 0
-95 -245 0
-96 -246 0
-55 -301 0
-56 -302 0
-57 -303 0
-58 -304 0
-59 -305 0
-60 -306 0
-97 -307 0
-98 -308 0
-99 -309 0
-100 -310 0
-101 -311 0
-102 -312 0
-37 -337 0
-38 -338 0
-39 -339 0
-40 -340 0
-41 -341 0
-42 -342 0
-61 -343 0
-62 -344 0
-63 -345 0
-64 -346 0
-65 -347 0
-66 -348 0
-103 -301 0
-104 -302 0
-105 -303 0
-106 -304 0
-107 -305 0
-108 -306 0
-229 -325 0
-230 -326 0
-231 -327 0
-232 -328 0
-233 -329 0
-234 -330 0
-61 -91 0
-62 -92 0
-63 -93 0
-64 -94 0
-65 -95 0
-66 -96 0
-67 -157 0
-68 -158 0
-69 -159 0
-70 -160 0
-71 -161 0
-72 -162 0
-73 -151 0
-74 -152 0
-75 -153 0
-76 -154 0
-77 -155 0
-78 -156 0
-109 -349 0
-110 -350 0
-111 -351 0
-112 -352 0
-113 -353 0
-114 -354 0
-79 -193 0
-80 -194 0
-81 -195 0
-82 -196 0
-83 -197 0
-84 -198 0
-13 -163 0
-14 -164 0
-15 -165 0
-16 -166 0
-17 -167 0
-18 -168 0
-19 -181 0
-20 -182 0
-21 -183 0
-22 -184 0
-23 -185 0
-24 -186 0
-115 -151 0
-116 -152 0
-117 -153 0
-118 -154 0
-119 -155 0
-120 -156 0
-157 -193 0
-158 -194 0
-159 -195 0
-160 -196 0
-161 -197 0
-162 -198 0
-121 -157 0
-122 -158 0
-123 -159 0
-124 -160 0
-125 -161 0
-126 -162 0
-19 -217 0
-20 -218 0
-21 -219 0
-22 -220 0
-23 -221 0
-24 -222 0
-319 -349 0
-320 -350 0
-321 -351 0
-322 -352 0
-323 -353 0
-324 -354 0
-199 -313 0
-200 -314 0
-201 -315 0
-202 -316 0
-203 -317 0
-204 -318 0
-37 -139 0
-38 -140 0
-39 -141 0
-40 -142 0
-41 -143 0
-42 -144 0
-55 -343 0
-56 -344 0
-57 -345 0
-58 -346 0
-59 -347 0
-60 -348 0
-97 -265 0
-98 -266 0
-99 -267 0
-100 -268 0
-101 -269 0
-102 -270 0
-61 -301 0
-62 -302 0
-63 -303 0
-64 -304 0
-65 -305 0
-66 -306 0
-79 -163 0
-80 -164 0
-81 -165 0
-82 -166 0
-83 -167 0
-84 -168 0
-85 -145 0
-86 -146 0
-87 -147 0
-88 -148 0
-89 -149 0
-90 -150 0
-139 -313 0
-140 -314 0
-141 -315 0
-142 -316 0
-143 -317 0
-144 -318 0
-79 -235 0
-80 -236 0
-81 -237 0
-82 -238 0
-83 -239 0
-84 -240 0
-115 -349 0
-116 -350 0
-117 -351 0
-118 -352 0
-119 -353 0
-120 -354 0
-7 -295 0
-8 -296 0
-9 -297 0
-10 -298 0
-11 -299 0
-12 -300 0
-151 -325 0
-152 -326 0
-153 -327 0
-154 -328 0
-155 -329 0
-156 -330 0
-127 -289 0
-128 -290 0
-129 -291 0
-130 -292 0
-131 -293 0
-132 -294 0
-271 -295 0
-272 -296 0
-273 -297 0
-274 -298 0
-275 -299 0
-276 -300 0
-157 -223 0
-158 -224 0
-159 -225 0
-160 -226 0
-161 -227 0
-162 -228 0
-133 -307 0
-134 -308 0
-135 -309 0
-136 -310 0
-137 -311 0
-138 -312 0
-19 -259 0
-20 -260 0
-21 -261 0
-22 -262 0
-23 -263 0
-24 -264 0
-37 -97 0
-38 -98 0
-39 -99 0
-40 -100 0
-41 -101 0
-42 -102 0
-127 -253 0
-128 -254 0
-129 -255 0
-130 -256 0
-131 -257 0
-132 -258 0
-25 -193 0
-26 -194 0
-27 -195 0
-28 -196 0
-29 -197 0
-30 -198 0
-325 -349 0
-326 -350 0
-327 -351 0
-328 -352 0
-329 -353 0
-330 -354 0
-37 -277 0
-38 -278 0
-39 -279 0
-40 -280 0
-41 -281 0
-42 -282 0
-181 -295 0
-182 -296 0
-183 -297 0
-184 -298 0
-185 -299 0
-186 -300 0
-103 -217 0
-104 -218 0
-105 -219 0
-106 -220 0
-107 -221 0
-108 -222 0
-67 -301 0
-68 -302 0
-69 -303 0
-70 -304 0
-71 -305 0
-72 -306 0
-97 -331 0
-98 -332 0
-99 -333 0
-100 -334 0
-101 -335 0
-102 -336 0
-73 -295 0
-74 -296 0
-75 -297 0
-76 -298 0
-77 -299 0
-78 -300 0
-61 -79 0
-62 -80 0
-63 -81 0
-64 -82 0
-65 -83 0
-66 -84 0
-283 -301 0
-284 -302 0
-285 -303 0
-286 -304 0
-287 -305 0
-288 -306 0
-289 -295 0
-290 -296 0
-291 -297 0
-292 -298 0
-293 -299 0
-294 -300 0
-79 -301 0
-80 -302 0
-81 -303 0
-82 -304 0
-83 -305 0
-84 -306 0
-145 -337 0
-146 -338 0
-147 -339 0
-148 -340 0
-149 -341 0
-150 -342 0
-139 -199 0
-140 -200 0
-141 -201 0
-142 -202 0
-143 -203 0
-144 -204 0
-145 -205 0
-146 -206 0
-147 -207 0
-148 -208 0
-149 -209 0
-150 -210 0
-31 -85 0
-32 -86 0
-33 -87 0
-34 -88 0
-35 -89 0
-36 -90 0
-19 -253 0
-20 -254 0
-21 -255 0
-22 -256 0
-23 -257 0
-24 -258 0
-163 -331 0
-164 -332 0
-165 -333 0
-166 -334 0
-167 -335 0
-168 -336 0
-37 -79 0
-38 -80 0
-39 -81 0
-40 -82 0
-41 -83 0
-42 -84 0
-127 -199 0
-128 -200 0
-129 -201 0
-130 -202 0
-131 -203 0
-132 -204 0
-115 -127 0
-116 -128 0
-117 -129 0
-118 -130 0
-119 -131 0
-120 -132 0
-31 -193 0
-32 -194 0
-33 -195 0
-34 -196 0
-35 -197 0
-36 -198 0
-25 -307 0
-26 -308 0
-27 -309 0
-28 -310 0
-29 -311 0
-30 -312 0
-91 -307 0
-92 -308 0
-93 -309 0
-94 -310 0
-95 -311 0
-96 -312 0
-67 -247 0
-68 -248 0
-69 -249 0
-70 -250 0
-71 -251 0
-72 -252 0
-55 -319 0
-56 -320 0
-57 -321 0
-58 -322 0
-59 -323 0
-60 -324 0
-43 -151 0
-44 -152 0
-45 -153 0
-46 -154 0
-47 -155 0
-48 -156 0
-49 -157 0
-50 -158 0
-51 -159 0
-52 -160 0
-53 -161 0
-54 -162 0
-103 -319 0
-104 -320 0
-105 -321 0
-106 -322 0
-107 -323 0
-108 -324 0
-55 -91 0
-56 -92 0
-57 -93 0
-58 -94 0
-59 -95 0
-60 -96 0
-229 -331 0
-230 -332 0
-231 -333 0
-232 -334 0
-233 -335 0
-234 -336 0
-79 -343 0
-80 -344 0
-81 -345 0
-82 -346 0
-83 -347 0
-84 -348 0
-151 -337 0
-152 -338 0
-153 -339 0
-154 -340 0
-155 -341 0
-156 -342 0
-115 -325 0
-116 -326 0
-117 -327 0
-118 -328 0
-119 -329 0
-120 -330 0
-13 -145 0
-14 -146 0
-15 -147 0
-16 -148 0
-17 -149 0
-18 -150 0
-157 -307 0
-158 -308 0
-159 -309 0
-160 -310 0
-161 -311 0
-162 -312 0
-145 -211 0
-146 -212 0
-147 -213 0
-148 -214 0
-149 -215 0
-150 -216 0
-277 -337 0
-278 -338 0
-279 -339 0
-280 -340 0
-281 -341 0
-282 -342 0
-121 -319 0
-122 -320 0
-123 -321 0
-124 -322 0
-125 -323 0
-126 -324 0
-19 -103 0
-20 -104 0
-21 -105 0
-22 -106 0
-23 -107 0
-24 -108 0
-109 -151 0
-110 -152 0
-111 -153 0
-112 -154 0
-113 -155 0
-114 -156 0
-163 -325 0
-164 -326 0
-165 -327 0
-166 -328 0
-167 -329 0
-168 -330 0
-151 -205 0
-152 -206 0
-153 -207 0
-154 -208 0
-155 -209 0
-156 -210 0
-187 -295 0
-188 -296 0
-189 -297 0
-190 -298 0
-191 -299 0
-192 -300 0
-127 -217 0
-128 -218 0
-129 -219 0
-130 -220 0
-131 -221 0
-132 -222 0
-31 -139 0
-32 -140 0
-33 -141 0
-34 -142 0
-35 -143 0
-36 -144 0
-19 -331 0
-20 -332 0
-21 -333 0
-22 -334 0
-23 -335 0
-24 -336 0
-49 -343 0
-50 -344 0
-51 -345 0
-52 -346 0
-53 -347 0
-54 -348 0
-91 -253 0
-92 -254 0
-93 -255 0
-94 -256 0
-95 -257 0
-96 -258 0
-55 -289 0
-56 -290 0
-57 -291 0
-58 -292 0
-59 -293 0
-60 -294 0
-97 -247 0
-98 -248 0
-99 -249 0
-100 -250 0
-101 -251 0
-102 -252 0
-241 -313 0
-242 -314 0
-243 -315 0
-244 -316 0
-245 -317 0
-246 -318 0
-79 -157 0
-80 -158 0
-81 -159 0
-82 -160 0
-83 -161 0
-84 -162 0
-55 -157 0
-56 -158 0
-57 -159 0
-58 -160 0
-59 -161 0
-60 -162 0
-73 -139 0
-74 -140 0
-75 -141 0
-76 -142 0
-77 -143 0
-78 -144 0
-79 -229 0
-80 -230 0
-81 -231 0
-82 -232 0
-83 -233 0
-84 -234 0
-13 -175 0
-14 -176 0
-15 -177 0
-16 -178 0
-17 -179 0
-18 -180 0
-1 -295 0
-2 -296 0
-3 -297 0
-4 -298 0
-5 -299 0
-6 -300 0
-301 -331 0
-302 -332 0
-303 -333 0
-304 -334 0
-305 -335 0
-306 -336 0
-19 -145 0
-20 -146 0
-21 -147 0
-22 -148 0
-23 -149 0
-24 -150 0
-157 -205 0
-158 -206 0
-159 -207 0
-160 -208 0
-161 -209 0
-162 -210 0
-193 -307 0
-194 -308 0
-195 -309 0
-196 -310 0
-197 -311 0
-198 -312 0
-133 -337 0
-134 -338 0
-135 -339 0
-136 -340 0
-137 -341 0
-138 -342 0
-121 -145 0
-122 -146 0
-123 -147 0
-124 -148 0
-125 -149 0
-126 -150 0
-19 -229 0
-20 -230 0
-21 -231 0
-22 -232 0
-23 -233 0
-24 -234 0
-199 -301 0
-200 -302 0
-201 -303 0
-202 -304 0
-203 -305 0
-204 -306 0
-43 -199 0
-44 -200 0
-45 -201 0
-46 -202 0
-47 -203 0
-48 -204 0
-37 -151 0
-38 -152 0
-39 -153 0
-40 -154 0
-41 -155 0
-42 -156 0
-91 -199 0
-92 -200 0
-93 -201 0
-94 -202 0
-95 -203 0
-96 -204 0
-31 -313 0
-32 -314 0
-33 -315 0
-34 -316 0
-35 -317 0
-36 -318 0
-97 -205 0
-98 -206 0
-99 -207 0
-100 -208 0
-101 -209 0
-102 -210 0
-37 -283 0
-38 -284 0
-39 -285 0
-40 -286 0
-41 -287 0
-42 -288 0
-91 -331 0
-92 -332 0
-93 -333 0
-94 -334 0
-95 -335 0
-96 -336 0
-67 -319 0
-68 -320 0
-69 -321 0
-70 -322 0
-71 -323 0
-72 -324 0
-85 -157 0
-86 -158 0
-87 -159 0
-88 -160 0
-89 -161 0
-90 -162 0
-73 -97 0
-74 -98 0
-75 -99 0
-76 -100 0
-77 -101 0
-78 -102 0
-139 -325 0
-140 -326 0
-141 -327 0
-142 -328 0
-143 -329 0
-144 -330 0
-145 -319 0
-146 -320 0
-147 -321 0
-148 -322 0
-149 -323 0
-150 -324 0
-85 -277 0
-86 -278 0
-87 -279 0
-88 -280 0
-89 -281 0
-90 -282 0
-121 -331 0
-122 -332 0
-123 -333 0
-124 -334 0
-125 -335 0
-126 -336 0
-151 -313 0
-152 -314 0
-153 -315 0
-154 -316 0
-155 -317 0
-156 -318 0
-127 -325 0
-128 -326 0
-129 -327 0
-130 -328 0
-131 -329 0
-132 -330 0
-157 -331 0
-158 -332 0
-159 -333 0
-160 -334 0
-161 -335 0
-162 -336 0
-19 -271 0
-20 -272 0
-21 -273 0
-22 -274 0
-23 -275 0
-24 -276 0
-43 -241 0
-44 -242 0
-45 -243 0
-46 -244 0
-47 -245 0
-48 -246 0
-127 -241 0
-128 -242 0
-129 -243 0
-130 -244 0
-131 -245 0
-132 -246 0
-25 -277 0
-26 -278 0
-27 -279 0
-28 -280 0
-29 -281 0
-30 -282 0
-13 -301 0
-14 -302 0
-15 -303 0
-16 -304 0
-17 -305 0
-18 -306 0
-91 -145 0
-92 -146 0
-93 -147 0
-94 -148 0
-95 -149 0
-96 -150 0
-19 -307 0
-20 -308 0
-21 -309 0
-22 -310 0
-23 -311 0
-24 -312 0
-55 -205 0
-56 -206 0
-57 -207 0
-58 -208 0
-59 -209 0
-60 -210 0
-97 -211 0
-98 -212 0
-99 -213 0
-100 -214 0
-101 -215 0
-102 -216 0
-37 -241 0
-38 -242 0
-39 -243 0
-40 -244 0
-41 -245 0
-42 -246 0
-61 -247 0
-62 -248 0
-63 -249 0
-64 -250 0
-65 -251 0
-66 -252 0
-49 -79 0
-50 -80 0
-51 -81 0
-52 -82 0
-53 -83 0
-54 -84 0
-217 -301 0
-218 -302 0
-219 -303 0
-220 -304 0
-221 -305 0
-222 -306 0
-49 -91 0
-50 -92 0
-51 -93 0
-52 -94 0
-53 -95 0
-54 -96 0
-283 -313 0
-284 -314 0
-285 -315 0
-286 -316 0
-287 -317 0
-288 -318 0
-223 -331 0
-224 -332 0
-225 -333 0
-226 -334 0
-227 -335 0
-228 -336 0
-265 -301 0
-266 -302 0
-267 -303 0
-268 -304 0
-269 -305 0
-270 -306 0
-79 -289 0
-80 -290 0
-81 -291 0
-82 -292 0
-83 -293 0
-84 -294 0
-85 -307 0
-86 -308 0
-87 -309 0
-88 -310 0
-89 -311 0
-90 -312 0
-19 -85 0
-20 -86 0
-21 -87 0
-22 -88 0
-23 -89 0
-24 -90 0
-139 -211 0
-140 -212 0
-141 -213 0
-142 -214 0
-143 -215 0
-144 -216 0
-25 -79 0
-26 -80 0
-27 -81 0
-28 -82 0
-29 -83 0
-30 -84 0
-145 -193 0
-146 -194 0
-147 -195 0
-148 -196 0
-149 -197 0
-150 -198 0
-19 -121 0
-20 -122 0
-21 -123 0
-22 -124 0
-23 -125 0
-24 -126 0
-151 -223 0
-152 -224 0
-153 -225 0
-154 -226 0
-155 -227 0
-156 -228 0
-127 -187 0
-128 -188 0
-129 -189 0
-130 -190 0
-131 -191 0
-132 -192 0
-25 -235 0
-26 -236 0
-27 -237 0
-28 -238 0
-29 -239 0
-30 -240 0
-13 -331 0
-14 -332 0
-15 -333 0
-16 -334 0
-17 -335 0
-18 -336 0
-19 -301 0
-20 -302 0
-21 -303 0
-22 -304 0
-23 -305 0
-24 -306 0
-55 -247 0
-56 -248 0
-57 -249 0
-58 -250 0
-59 -251 0
-60 -252 0
-43 -319 0
-44 -320 0
-45 -321 0
-46 -322 0
-47 -323 0
-48 -324 0
-61 -205 0
-62 -206 0
-63 -207 0
-64 -208 0
-65 -209 0
-66 -210 0
-103 -151 0
-104 -152 0
-105 -153 0
-106 -154 0
-107 -155 0
-108 -156 0
-91 -319 0
-92 -320 0
-93 -321 0
-94 -322 0
-95 -323 0
-96 -324 0
-31 -337 0
-32 -338 0
-33 -339 0
-34 -340 0
-35 -341 0
-36 -342 0
-49 -145 0
-50 -146 0
-51 -147 0
-52 -148 0
-53 -149 0
-54 -150 0
-79 -127 0
-80 -128 0
-81 -129 0
-82 -130 0
-83 -131 0
-84 -132 0
-223 -301 0
-224 -302 0
-225 -303 0
-226 -304 0
-227 -305 0
-228 -306 0
-79 -331 0
-80 -332 0
-81 -333 0
-82 -334 0
-83 -335 0
-84 -336 0
-67 -139 0
-68 -140 0
-69 -141 0
-70 -142 0
-71 -143 0
-72 -144 0
-109 -319 0
-110 -320 0
-111 -321 0
-112 -322 0
-113 -323 0
-114 -324 0
-79 -199 0
-80 -200 0
-81 -201 0
-82 -202 0
-83 -203 0
-84 -204 0
-13 -157 0
-14 -158 0
-15 -159 0
-16 -160 0
-17 -161 0
-18 -162 0
-157 -319 0
-158 -320 0
-159 -321 0
-160 -322 0
-161 -323 0
-162 -324 0
-19 -163 0
-20 -164 0
-21 -165 0
-22 -166 0
-23 -167 0
-24 -168 0
-151 -193 0
-152 -194 0
-153 -195 0
-154 -196 0
-155 -197 0
-156 -198 0
-127 -349 0
-128 -350 0
-129 -351 0
-130 -352 0
-131 -353 0
-132 -354 0
-25 -97 0
-26 -98 0
-27 -99 0
-28 -100 0
-29 -101 0
-30 -102 0
-91 -133 0
-92 -134 0
-93 -135 0
-94 -136 0
-95 -137 0
-96 -138 0
-19 -343 0
-20 -344 0
-21 -345 0
-22 -346 0
-23 -347 0
-24 -348 0
-199 -319 0
-200 -320 0
-201 -321 0
-202 -322 0
-203 -323 0
-204 -324 0
-97 -127 0
-98 -128 0
-99 -129 0
-100 -130 0
-101 -131 0
-102 -132 0
-91 -265 0
-92 -266 0
-93 -267 0
-94 -268 0
-95 -269 0
-96 -270 0
-31 -283 0
-32 -284 0
-33 -285 0
-34 -286 0
-35 -287 0
-36 -288 0
-67 -205 0
-68 -206 0
-69 -207 0
-70 -208 0
-71 -209 0
-72 -210 0
-97 -235 0
-98 -236 0
-99 -237 0
-100 -238 0
-101 -239 0
-102 -240 0
-37 -313 0
-38 -314 0
-39 -315 0
-40 -316 0
-41 -317 0
-42 -318 0
-79 -145 0
-80 -146 0
-81 -147 0
-82 -148 0
-83 -149 0
-84 -150 0
-55 -145 0
-56 -146 0
-57 -147 0
-58 -148 0
-59 -149 0
-60 -150 0
-229 -301 0
-230 -302 0
-231 -303 0
-232 -304 0
-233 -305 0
-234 -306 0
-73 -127 0
-74 -128 0
-75 -129 0
-76 -130 0
-77 -131 0
-78 -132 0
-115 -331 0
-116 -332 0
-117 -333 0
-118 -334 0
-119 -335 0
-120 -336 0
-301 -343 0
-302 -344 0
-303 -345 0
-304 -346 0
-305 -347 0
-306 -348 0
-145 -301 0
-146 -302 0
-147 -303 0
-148 -304 0
-149 -305 0
-150 -306 0
-19 -157 0
-20 -158 0
-21 -159 0
-22 -160 0
-23 -161 0
-24 -162 0
-109 -217 0
-110 -218 0
-111 -219 0
-112 -220 0
-113 -221 0
-114 -222 0
-127 -295 0
-128 -296 0
-129 -297 0
-130 -298 0
-131 -299 0
-132 -300 0
-25 -151 0
-26 -152 0
-27 -153 0
-28 -154 0
-29 -155 0
-30 -156 0
-13 -223 0
-14 -224 0
-15 -225 0
-16 -226 0
-17 -227 0
-18 -228 0
-157 -217 0
-158 -218 0
-159 -219 0
-160 -220 0
-161 -221 0
-162 -222 0
-31 -97 0
-32 -98 0
-33 -99 0
-34 -100 0
-35 -101 0
-36 -102 0
-19 -193 0
-20 -194 0
-21 -195 0
-22 -196 0
-23 -197 0
-24 -198 0
-169 -229 0
-170 -230 0
-171 -231 0
-172 -232 0
-173 -233 0
-174 -234 0
-91 -211 0
-92 -212 0
-93 -213 0
-94 -214 0
-95 -215 0
-96 -216 0
-97 -193 0
-98 -194 0
-99 -195 0
-100 -196 0
-101 -197 0
-102 -198 0
-91 -343 0
-92 -344 0
-93 -345 0
-94 -346 0
-95 -347 0
-96 -348 0
-43 -91 0
-44 -92 0
-45 -93 0
-46 -94 0
-47 -95 0
-48 -96 0
-97 -349 0
-98 -350 0
-99 -351 0
-100 -352 0
-101 -353 0
-102 -354 0
-67 -79 0
-68 -80 0
-69 -81 0
-70 -82 0
-71 -83 0
-72 -84 0
-265 -331 0
-266 -332 0
-267 -333 0
-268 -334 0
-269 -335 0
-270 -336 0
-139 -337 0
-140 -338 0
-141 -339 0
-142 -340 0
-143 -341 0
-144 -342 0
-145 -307 0
-146 -308 0
-147 -309 0
-148 -310 0
-149 -311 0
-150 -312 0
-151 -301 0
-152 -302 0
-153 -303 0
-154 -304 0
-155 -305 0
-156 -306 0
-127 -313 0
-128 -314 0
-129 -315 0
-130 -316 0
-131 -317 0
-132 -318 0
-271 -319 0
-272 -320 0
-273 -321 0
-274 -322 0
-275 -323 0
-276 -324 0
-157 -343 0
-158 -344 0
-159 -345 0
-160 -346 0
-161 -347 0
-162 -348 0
-19 -235 0
-20 -236 0
-21 -237 0
-22 -238 0
-23 -239 0
-24 -240 0
-187 -331 0
-188 -332 0
-189 -333 0
-190 -334 0
-191 -335 0
-192 -336 0
-127 -277 0
-128 -278 0
-129 -279 0
-130 -280 0
-131 -281 0
-132 -282 0
-91 -157 0
-92 -158 0
-93 -159 0
-94 -160 0
-95 -161 0
-96 -162 0
-31 -199 0
-32 -200 0
-33 -201 0
-34 -202 0
-35 -203 0
-36 -204 0
-19 -319 0
-20 -320 0
-21 -321 0
-22 -322 0
-23 -323 0
-24 -324 0
-97 -151 0
-98 -152 0
-99 -153 0
-100 -154 0
-101 -155 0
-102 -156 0
-205 -349 0
-206 -350 0
-207 -351 0
-208 -352 0
-209 -353 0
-210 -354 0
-49 -127 0
-50 -128 0
-51 -129 0
-52 -130 0
-53 -131 0
-54 -132 0
-103 -349 0
-104 -350 0
-105 -351 0
-106 -352 0
-107 -353 0
-108 -354 0
-61 -139 0
-62 -140 0
-63 -141 0
-64 -142 0
-65 -143 0
-66 -144 0
-79 -325 0
-80 -326 0
-81 -327 0
-82 -328 0
-83 -329 0
-84 -330 0
-109 -301 0
-110 -302 0
-111 -303 0
-112 -304 0
-113 -305 0
-114 -306 0
-151 -343 0
-152 -344 0
-153 -345 0
-154 -346 0
-155 -347 0
-156 -348 0
-139 -223 0
-140 -224 0
-141 -225 0
-142 -226 0
-143 -227 0
-144 -228 0
-157 -301 0
-158 -302 0
-159 -303 0
-160 -304 0
-161 -305 0
-162 -306 0
-19 -133 0
-20 -134 0
-21 -135 0
-22 -136 0
-23 -137 0
-24 -138 0
-109 -145 0
-110 -146 0
-111 -147 0
-112 -148 0
-113 -149 0
-114 -150 0
-151 -211 0
-152 -212 0
-153 -213 0
-154 -214 0
-155 -215 0
-156 -216 0
-127 -223 0
-128 -224 0
-129 -225 0
-130 -226 0
-131 -227 0
-132 -228 0
-25 -127 0
-26 -128 0
-27 -129 0
-28 -130 0
-29 -131 0
-30 -132 0
-181 -229 0
-182 -230 0
-183 -231 0
-184 -232 0
-185 -233 0
-186 -234 0
-103 -139 0
-104 -140 0
-105 -141 0
-106 -142 0
-107 -143 0
-108 -144 0
-91 -235 0
-92 -236 0
-93 -237 0
-94 -238 0
-95 -239 0
-96 -240 0
-211 -349 0
-212 -350 0
-213 -351 0
-214 -352 0
-215 -353 0
-216 -354 0
-97 -313 0
-98 -314 0
-99 -315 0
-100 -316 0
-101 -317 0
-102 -318 0
-61 -97 0
-62 -98 0
-63 -99 0
-64 -100 0
-65 -101 0
-66 -102 0
-67 -151 0
-68 -152 0
-69 -153 0
-70 -154 0
-71 -155 0
-72 -156 0
-73 -157 0
-74 -158 0
-75 -159 0
-76 -160 0
-77 -161 0
-78 -162 0
-109 -331 0
-110 -332 0
-111 -333 0
-112 -334 0
-113 -335 0
-114 -336 0
-79 -187 0
-80 -188 0
-81 -189 0
-82 -190 0
-83 -191 0
-84 -192 0
-115 -301 0
-116 -302 0
-117 -303 0
-118 -304 0
-119 -305 0
-120 -306 0
-13 -169 0
-14 -170 0
-15 -171 0
-16 -172 0
-17 -173 0
-18 -174 0
-121 -295 0
-122 -296 0
-123 -297 0
-124 -298 0
-125 -299 0
-126 -300 0
-19 -175 0
-20 -176 0
-21 -177 0
-22 -178 0
-23 -179 0
-24 -180 0
-163 -301 0
-164 -302 0
-165 -303 0
-166 -304 0
-167 -305 0
-168 -306 0
